input/MY-INPUT-DATASETS/input2.gr
p tw 50 245
1 2
1 4
1 7
1 9
1 25
1 31
1 41
1 42
1 45
2 13
2 28
2 29
2 31
2 33
2 36
2 43
2 47
3 8
3 13
3 16
3 20
3 22
3 35
3 40
3 48
4 8
4 15
4 27
4 31
4 37
4 40
4 41
4 47
4 48
5 7
5 12
5 15
5 17
5 18
5 21
5 30
5 34
5 43
5 48
6 10
6 11
6 12
6 13
6 15
6 17
6 26
6 38
6 41
6 42
6 44
6 46
6 49
7 9
7 15
7 17
7 18
7 20
7 22
7 26
7 32
7 33
7 35
7 39
7 44
7 45
7 47
7 50
8 9
8 16
8 21
8 23
8 24
8 33
8 35
8 36
8 40
8 50
9 17
9 24
9 30
9 32
9 37
10 13
10 40
10 43
10 44
10 50
11 14
11 15
11 17
11 23
11 28
11 30
11 31
11 43
11 44
11 46
11 48
12 15
12 17
12 18
12 24
12 37
12 45
13 14
13 19
13 23
13 26
13 28
13 32
13 35
13 37
14 17
14 19
14 21
14 22
14 24
14 30
14 32
14 34
14 39
14 40
14 50
15 23
15 31
15 34
15 38
15 40
15 45
15 50
16 17
16 26
16 28
16 32
16 35
16 41
17 19
17 21
17 22
17 23
17 29
17 30
17 32
17 35
17 36
17 37
18 25
18 28
18 31
18 36
18 37
18 38
18 39
18 40
18 47
19 25
19 29
19 30
19 44
19 49
20 23
20 24
20 27
20 31
20 33
20 49
20 50
21 25
21 29
21 39
21 41
21 48
22 37
22 46
23 26
23 28
23 31
23 33
23 37
23 46
24 30
24 34
24 36
24 39
24 40
24 47
24 48
25 39
25 47
25 48
26 27
26 30
26 32
26 33
26 43
26 46
26 49
27 37
27 46
28 31
28 47
29 48
30 46
30 50
31 34
31 38
32 34
32 35
32 45
33 38
33 41
33 42
34 36
34 39
34 41
34 42
34 48
35 38
35 43
35 45
36 40
36 41
36 45
36 47
36 49
37 38
38 46
38 47
38 50
39 43
39 48
40 43
41 42
41 45
43 49
44 46
45 50
46 47
47 49
47 50
